6 6 153
4 6 1 5 1 5 2 5 3 2 32 32 62 62 104 104 149 
4 1 1 4 1 2 2 4 3 15 48 48 78 78 126 126 153 
3 3 1 3 2 1 2 5 41 41 101 101 152 
4 2 1 6 2 4 2 6 3 18 42 42 81 81 120 120 153 
9 3 1 2 1 2 1 6 2 6 2 2 2 1 2 4 3 4 3 0 5 5 11 11 18 25 32 32 37 42 48 48 52 117 120 120 126 
8 6 1 1 1 1 1 5 1 5 1 4 1 4 1 4 2 0 2 2 11 11 15 15 25 25 27 27 36 36 40 78 81 
